#######################



#######################
Set parameter TimeLimit to value 300
Set parameter SoftMemLimit to value 125
Set parameter MIPFocus to value 3
Set parameter LogFile to value 1202-MIPFocus3-Presolve2-TimeLimit300-k16x240-9.log
Set parameter Presolve to value 2
Set parameter Seed to value 9
Using license file /opt/gurobi/gurobi.lic

Gurobi Optimizer version 12.0.2 build v12.0.2rc0 (linux64 - "Ubuntu 22.04.4 LTS")
Copyright (c) 2025, Gurobi Optimization, LLC

Read MPS format model from file /miplib2010/k16x240.mps.bz2
Reading time = 0.00 seconds
k16x240: 256 rows, 480 columns, 960 nonzeros

Using Gurobi shared library /nfs/shared/static-builds/gurobi1202

CPU model: Intel(R) Xeon(R) E-2388G CPU @ 3.20GHz, instruction set [SSE2|AVX|AVX2|AVX512]
Thread count: 8 physical cores, 16 logical processors, using up to 16 threads

Non-default parameters:
TimeLimit  300
SoftMemLimit  125
MIPFocus  3
Presolve  2
Seed  9

Optimize a model with 256 rows, 480 columns and 960 nonzeros
Model fingerprint: 0x4e80885f
Variable types: 240 continuous, 240 integer (240 binary)
Coefficient statistics:
  Matrix range     [1e+00, 1e+03]
  Objective range  [1e+00, 1e+03]
  Bounds range     [1e+00, 1e+03]
  RHS range        [4e+00, 4e+02]
Found heuristic solution: objective 21896.000000
Presolve time: 0.00s
Presolved: 256 rows, 480 columns, 960 nonzeros
Variable types: 240 continuous, 240 integer (240 binary)
Root relaxation presolve removed 241 rows and 240 columns
Root relaxation presolved: 15 rows, 240 columns, 450 nonzeros


Root relaxation: objective 2.769838e+03, 16 iterations, 0.00 seconds (0.00 work units)

    Nodes    |    Current Node    |     Objective Bounds      |     Work
 Expl Unexpl |  Obj  Depth IntInf | Incumbent    BestBd   Gap | It/Node Time

     0     0 2769.83800    0   14 21896.0000 2769.83800  87.4%     -    0s
H    0     0                    11359.000000 2769.83800  75.6%     -    0s
H    0     0                    11062.000000 2769.83800  75.0%     -    0s
H    0     0                    11021.000000 8116.87580  26.4%     -    0s
     0     0 8116.87580    0   26 11021.0000 8116.87580  26.4%     -    0s
H    0     0                    11003.000000 8182.85928  25.6%     -    0s
H    0     0                    10878.000000 8182.85928  24.8%     -    0s
H    0     0                    10788.000000 8182.85928  24.1%     -    0s
H    0     0                    10787.000000 8182.85928  24.1%     -    0s
     0     0 8748.17806    0   23 10787.0000 8748.17806  18.9%     -    0s
     0     0 8751.29955    0   19 10787.0000 8751.29955  18.9%     -    0s
     0     0 8771.82481    0   21 10787.0000 8771.82481  18.7%     -    0s
     0     0 8810.95744    0   23 10787.0000 8810.95744  18.3%     -    0s
     0     0 8810.95744    0   24 10787.0000 8810.95744  18.3%     -    0s
H    0     0                    10750.000000 8936.75034  16.9%     -    0s
     0     0 9046.36529    0   41 10750.0000 9046.36529  15.8%     -    0s
H    0     0                    10748.000000 9046.36529  15.8%     -    0s
H    0     0                    10746.000000 9046.36529  15.8%     -    0s
     0     0 9092.01870    0   33 10746.0000 9092.01870  15.4%     -    0s
     0     0 9104.04056    0   43 10746.0000 9104.04056  15.3%     -    0s
     0     0 9193.58080    0   34 10746.0000 9193.58080  14.4%     -    0s
     0     0 9193.58080    0   28 10746.0000 9193.58080  14.4%     -    0s
     0     0 9196.11739    0   37 10746.0000 9196.11739  14.4%     -    0s
     0     0 9196.11739    0   37 10746.0000 9196.11739  14.4%     -    0s
     0     2 9196.11739    0   37 10746.0000 9196.11739  14.4%     -    0s
H   92    98                    10674.000000 9371.34883  12.2%  69.4    0s
  4057  2950 10463.1948   22   14 10674.0000 10247.2148  4.00%  81.2    5s
 16181  8118 10670.8215   30   16 10674.0000 10485.5401  1.77%  57.9   10s

Cutting planes:
  Lift-and-project: 8
  Cover: 2
  Implied bound: 7
  Dual implied bound: 7
  MIR: 139
  Flow cover: 504
  Flow path: 44
  Zero half: 20
  Network: 15
  Relax-and-lift: 4

Explored 41507 nodes (1503377 simplex iterations) in 14.04 seconds (20.22 work units)
Thread count was 16 (of 16 available processors)

Solution count 10: 10674 10746 10748 ... 11062

Optimal solution found (tolerance 1.00e-04)
Best objective 1.067400000000e+04, best bound 1.067300000000e+04, gap 0.0094%
